Welcome to the CBC MILP Solver 
Version: 2.10.10 
Build Date: Apr 19 2023 

command line - cbc /tmp/e6f9eda2d2164c12afb07dbcf77ebb3c-pulp.mps max sec 15 timeMode elapsed branch printingOptions all solution /tmp/e6f9eda2d2164c12afb07dbcf77ebb3c-pulp.sol (default strategy 1)
At line 2 NAME          MODEL
At line 3 ROWS
At line 24759 COLUMNS
At line 92372 RHS
At line 117127 BOUNDS
At line 124328 ENDATA
Problem MODEL has 24754 rows, 7200 columns and 66585 elements
Coin0008I MODEL read with 0 errors
seconds was changed from 1e+100 to 15
Option for timeMode changed from cpu to elapsed
Presolve 3272 (-21482) rows, 2036 (-5164) columns and 10203 (-56382) elements
Perturbing problem by 0.001% of 0.57735027 - largest nonzero change 0.00096971613 ( 0.19394323%) - largest zero change 0.00096851906
0  Obj 2 Primal inf 93.702815 (60) Dual inf 32.993971 (66)
140  Obj 15.966767 Primal inf 228.5363 (219)
280  Obj 15.95737 Primal inf 202.98716 (207)
420  Obj 15.954352 Primal inf 183.21872 (194)
560  Obj 15.951225 Primal inf 163.22111 (152)
700  Obj 15.948715 Primal inf 505.42041 (194)
840  Obj 15.945089 Primal inf 169.0346 (146)
980  Obj 15.943641 Primal inf 165.94108 (119)
1120  Obj 15.9408 Primal inf 65.447528 (70)
1260  Obj 15.937163 Primal inf 2.5899692 (3)
1279  Obj 15.937141
Optimal - objective value 16
After Postsolve, objective 16, infeasibilities - dual 0 (0), primal 0 (0)
Optimal objective 16 - 1279 iterations time 0.152, Presolve 0.07
Option for printingOptions changed from normal to all
Total time (CPU seconds):       0.37   (Wallclock seconds):       0.13

Welcome to the CBC MILP Solver 
Version: 2.10.10 
Build Date: Apr 19 2023 

command line - cbc /tmp/a787e156934940e08f4172dc6fd78cb3-pulp.mps max sec 15 timeMode elapsed branch printingOptions all solution /tmp/a787e156934940e08f4172dc6fd78cb3-pulp.sol (default strategy 1)
At line 2 NAME          MODEL
At line 3 ROWS
At line 24759 COLUMNS
At line 106772 RHS
At line 131527 BOUNDS
At line 138728 ENDATA
Problem MODEL has 24754 rows, 7200 columns and 66585 elements
Coin0008I MODEL read with 0 errors
seconds was changed from 1e+100 to 15
Option for timeMode changed from cpu to elapsed
Continuous objective value is 16 - 0.13 seconds
Cgl0002I 3083 variables fixed
Cgl0003I 264 fixed, 0 tightened bounds, 1778 strengthened rows, 637 substitutions
Cgl0003I 0 fixed, 0 tightened bounds, 579 strengthened rows, 20 substitutions
Cgl0003I 0 fixed, 0 tightened bounds, 266 strengthened rows, 0 substitutions
Cgl0003I 0 fixed, 0 tightened bounds, 166 strengthened rows, 0 substitutions
Cgl0003I 0 fixed, 0 tightened bounds, 30 strengthened rows, 0 substitutions
Cgl0003I 0 fixed, 0 tightened bounds, 30 strengthened rows, 0 substitutions
Cgl0003I 0 fixed, 0 tightened bounds, 10 strengthened rows, 0 substitutions
Cgl0003I 0 fixed, 0 tightened bounds, 10 strengthened rows, 0 substitutions
Cgl0003I 0 fixed, 0 tightened bounds, 10 strengthened rows, 0 substitutions
Cgl0003I 0 fixed, 0 tightened bounds, 10 strengthened rows, 0 substitutions
Cgl0004I processed model has 1829 rows, 1694 columns (1694 integer (1668 of which binary)) and 8071 elements
Cutoff increment increased from 1e-05 to 0.9999
Cbc0045I 58 integer variables out of 1694 objects (1694 integer) have cost of -1 - high priority
Cbc0045I branch on satisfied N create fake objective Y random cost Y
Cbc0038I Initial state - 18 integers unsatisfied sum - 9
Cbc0038I Solution found of 16
Cbc0038I Cleaned solution of 16
Cbc0038I Before mini branch and bound, 1676 integers at bound fixed and 0 continuous
Cbc0038I Mini branch and bound did not improve solution (0.24 seconds)
Cbc0038I After 0.24 seconds - Feasibility pump exiting with objective of 16 - took 0.00 seconds
Cbc0012I Integer solution of 16 found by feasibility pump after 0 iterations and 0 nodes (0.24 seconds)
Cbc0001I Search completed - best objective 15.9999999999998, took 0 iterations and 0 nodes (0.24 seconds)
Cbc0035I Maximum depth 0, 0 variables fixed on reduced cost
Cuts at root node changed objective from 16 to 16
Probing was tried 0 times and created 0 cuts of which 0 were active after adding rounds of cuts (0.000 seconds)
Gomory was tried 0 times and created 0 cuts of which 0 were active after adding rounds of cuts (0.000 seconds)
Knapsack was tried 0 times and created 0 cuts of which 0 were active after adding rounds of cuts (0.000 seconds)
Clique was tried 0 times and created 0 cuts of which 0 were active after adding rounds of cuts (0.000 seconds)
MixedIntegerRounding2 was tried 0 times and created 0 cuts of which 0 were active after adding rounds of cuts (0.000 seconds)
FlowCover was tried 0 times and created 0 cuts of which 0 were active after adding rounds of cuts (0.000 seconds)
TwoMirCuts was tried 0 times and created 0 cuts of which 0 were active after adding rounds of cuts (0.000 seconds)
ZeroHalf was tried 0 times and created 0 cuts of which 0 were active after adding rounds of cuts (0.000 seconds)

Result - Optimal solution found

Objective value:                16.00000000
Enumerated nodes:               0
Total iterations:               0
Time (CPU seconds):             0.33
Time (Wallclock seconds):       0.28

Option for printingOptions changed from normal to all
Total time (CPU seconds):       0.57   (Wallclock seconds):       0.36

